data;
set K:= K1 K2 K3 K4 K5 K6 K7 K8 K9 K10 ;

set F:= F1 F2 F3 ;

set Q:= Q1 Q2 ;

param T:= 45;
param V: 
	K1  K2  K3  K4  K5  K6  K7  K8  K9  K10 :=
Q1	1   1   1   1   1   1   0   0   0   0   
Q2	0   0   0   0   0   0   1   1   1   1   
; # if resorce k is of type q

param TF:= 
K1 6
K2 6
K3 6
K4 6
K5 6
K6 6
K7 12
K8 12
K9 12
K10 12
; # number of continuous time slots resource can fly

param TR:= 
K1 2
K2 2
K3 2
K4 2
K5 2
K6 2
K7 4
K8 4
K9 4
K10 4
; #  number of continuous time slots resource k needs to rest between flights

param P:= 
K1 36
K2 36
K3 36
K4 36
K5 36
K6 36
K7 36
K8 36
K9 36
K10 36
; #  number of continuous time slots a pilot can be present including rest times for resource k 

param N:= 
K1 4
K2 4
K3 4
K4 4
K5 4
K6 4
K7 2
K8 2
K9 2
K10 2
; # max number of flights resource k can fly in the total time period

param A: 
	K1  K2  K3  K4  K5  K6  K7  K8  K9  K10 :=
1	1   1   1   1   1   1   1   1   1   1   
2	1   1   1   1   1   1   1   1   1   1   
3	1   1   1   1   1   1   1   1   1   1   
4	1   1   1   1   1   1   1   1   1   1   
5	1   1   1   1   1   1   1   1   1   1   
6	1   1   1   1   1   1   1   1   1   1   
7	1   1   1   1   1   1   1   1   1   1   
8	1   1   1   1   1   1   1   1   1   1   
9	1   1   1   1   1   1   1   1   1   1   
10	1   1   1   1   1   1   1   1   1   1   
11	1   1   1   1   1   1   1   1   1   1   
12	1   1   1   1   1   1   1   1   1   1   
13	1   1   1   1   1   1   1   1   1   1   
14	1   1   1   1   1   1   1   1   1   1   
15	1   1   1   1   1   1   1   1   1   1   
16	1   1   1   1   1   1   1   1   1   1   
17	1   1   1   1   1   1   1   1   1   1   
18	1   1   1   1   1   1   1   1   1   1   
19	1   1   1   1   1   1   1   1   1   1   
20	1   1   1   1   1   1   1   1   1   1   
21	1   1   1   1   1   1   1   1   1   1   
22	1   1   1   1   1   1   1   1   1   1   
23	1   1   1   1   1   1   1   1   1   1   
24	1   1   1   1   1   1   1   1   1   1   
25	1   1   1   1   1   1   1   1   1   1   
26	1   1   1   1   1   1   1   1   1   1   
27	1   1   1   1   1   1   1   1   1   1   
28	1   1   1   1   1   1   1   1   1   1   
29	1   1   1   1   1   1   1   1   1   1   
30	1   1   1   1   1   1   1   1   1   1   
31	1   1   1   1   1   1   1   1   1   1   
32	1   1   1   1   1   1   1   1   1   1   
33	1   1   1   1   1   1   1   1   1   1   
34	1   1   1   1   1   1   1   1   1   1   
35	1   1   1   1   1   1   1   1   1   1   
36	1   1   1   1   1   1   1   1   1   1   
37	1   1   1   1   1   1   1   1   1   1   
38	1   1   1   1   1   1   1   1   1   1   
39	1   1   1   1   1   1   1   1   1   1   
40	1   1   1   1   1   1   1   1   1   1   
41	1   1   1   1   1   1   1   1   1   1   
42	1   1   1   1   1   1   1   1   1   1   
43	1   1   1   1   1   1   1   1   1   1   
44	1   1   1   1   1   1   1   1   1   1   
45	1   1   1   1   1   1   1   1   1   1   
; # availability of resorce k in time slot t

param B: 
	F1  F2  F3  :=
Q1	0   0   0   
Q2	0   0   0   
; # if front f requires resources of type q

param U: 
	F1  F2  F3  :=
K1	0   0   0   
K2	0   0   0   
K3	0   0   0   
K4	0   0   0   
K5	0   0   0   
K6	0   0   0   
K7	0   0   0   
K8	2   2   2   
K9	1   1   1   
K10	2   2   2   
; # transit time of resource

param C:= 
K1 900
K2 900
K3 900
K4 1500
K5 4500
K6 2100
K7 5500
K8 5500
K9 5500
K10 5500
; #  water capacity of resource k

param S:= 
F1 7
F2 9
F3 7
; # max number of resources that can fly at front f in the same time slot

param D:= 

[*,*,F1 ]:  K1    K2    K3    K4    K5    K6    K7    K8    K9    K10   :=
1           1.84  1.84  1.84  1.84  1.46  1.84  1.10  1.10  1.10  1.10  
2           1.84  1.84  1.84  1.84  1.46  1.84  1.10  1.10  1.10  1.10  
3           1.84  1.84  1.84  1.84  1.46  1.84  1.10  1.10  1.10  1.10  
4           1.84  1.84  1.84  1.84  1.46  1.84  1.10  1.10  1.10  1.10  
5           1.84  1.84  1.84  1.84  1.46  1.84  1.10  1.10  1.10  1.10  
6           1.84  1.84  1.84  1.84  1.46  1.84  1.10  1.10  1.10  1.10  
7           1.84  1.84  1.84  1.84  1.46  1.84  1.10  1.10  1.10  1.10  
8           1.84  1.84  1.84  1.84  1.46  1.84  1.10  1.10  1.10  1.10  
9           1.84  1.84  1.84  1.84  1.46  1.84  1.10  1.10  1.10  1.10  
10          1.84  1.84  1.84  1.84  1.46  1.84  1.10  1.10  1.10  1.10  
11          1.84  1.84  1.84  1.84  1.46  1.84  1.10  1.10  1.10  1.10  
12          1.84  1.84  1.84  1.84  1.46  1.84  1.10  1.10  1.10  1.10  
13          1.84  1.84  1.84  1.84  1.46  1.84  1.10  1.10  1.10  1.10  
14          1.84  1.84  1.84  1.84  1.46  1.84  1.10  1.10  1.10  1.10  
15          1.84  1.84  1.84  1.84  1.46  1.84  1.10  1.10  1.10  1.10  
16          1.84  1.84  1.84  1.84  1.46  1.84  1.10  1.10  1.10  1.10  
17          1.84  1.84  1.84  1.84  1.46  1.84  1.10  1.10  1.10  1.10  
18          1.84  1.84  1.84  1.84  1.46  1.84  1.10  1.10  1.10  1.10  
19          1.84  1.84  1.84  1.84  1.46  1.84  1.10  1.10  1.10  1.10  
20          1.84  1.84  1.84  1.84  1.46  1.84  1.10  1.10  1.10  1.10  
21          1.84  1.84  1.84  1.84  1.46  1.84  1.10  1.10  1.10  1.10  
22          1.84  1.84  1.84  1.84  1.46  1.84  1.10  1.10  1.10  1.10  
23          1.84  1.84  1.84  1.84  1.46  1.84  1.10  1.10  1.10  1.10  
24          1.84  1.84  1.84  1.84  1.46  1.84  1.10  1.10  1.10  1.10  
25          1.75  1.75  1.75  1.75  1.39  1.75  1.05  1.05  1.05  1.05  
26          1.75  1.75  1.75  1.75  1.39  1.75  1.05  1.05  1.05  1.05  
27          1.75  1.75  1.75  1.75  1.39  1.75  1.05  1.05  1.05  1.05  
28          1.75  1.75  1.75  1.75  1.39  1.75  1.05  1.05  1.05  1.05  
29          1.75  1.75  1.75  1.75  1.39  1.75  1.05  1.05  1.05  1.05  
30          1.75  1.75  1.75  1.75  1.39  1.75  1.05  1.05  1.05  1.05  
31          1.75  1.75  1.75  1.75  1.39  1.75  1.05  1.05  1.05  1.05  
32          1.75  1.75  1.75  1.75  1.39  1.75  1.05  1.05  1.05  1.05  
33          1.75  1.75  1.75  1.75  1.39  1.75  1.05  1.05  1.05  1.05  
34          1.84  1.84  1.84  1.84  1.46  1.84  1.10  1.10  1.10  1.10  
35          1.84  1.84  1.84  1.84  1.46  1.84  1.10  1.10  1.10  1.10  
36          1.84  1.84  1.84  1.84  1.46  1.84  1.10  1.10  1.10  1.10  
37          1.84  1.84  1.84  1.84  1.46  1.84  1.10  1.10  1.10  1.10  
38          1.84  1.84  1.84  1.84  1.46  1.84  1.10  1.10  1.10  1.10  
39          1.84  1.84  1.84  1.84  1.46  1.84  1.10  1.10  1.10  1.10  
40          1.84  1.84  1.84  1.84  1.46  1.84  1.10  1.10  1.10  1.10  
41          1.84  1.84  1.84  1.84  1.46  1.84  1.10  1.10  1.10  1.10  
42          1.84  1.84  1.84  1.84  1.46  1.84  1.10  1.10  1.10  1.10  
43          1.84  1.84  1.84  1.84  1.46  1.84  1.10  1.10  1.10  1.10  
44          1.84  1.84  1.84  1.84  1.46  1.84  1.10  1.10  1.10  1.10  
45          1.84  1.84  1.84  1.84  1.46  1.84  1.10  1.10  1.10  1.10  

[*,*,F2 ]:  K1    K2    K3    K4    K5    K6    K7    K8    K9    K10   :=
1           1.75  1.75  1.75  1.75  1.40  1.75  1.05  1.05  1.05  1.05  
2           1.75  1.75  1.75  1.75  1.40  1.75  1.05  1.05  1.05  1.05  
3           1.75  1.75  1.75  1.75  1.40  1.75  1.05  1.05  1.05  1.05  
4           1.75  1.75  1.75  1.75  1.40  1.75  1.05  1.05  1.05  1.05  
5           1.75  1.75  1.75  1.75  1.40  1.75  1.05  1.05  1.05  1.05  
6           1.75  1.75  1.75  1.75  1.40  1.75  1.05  1.05  1.05  1.05  
7           1.75  1.75  1.75  1.75  1.40  1.75  1.05  1.05  1.05  1.05  
8           1.75  1.75  1.75  1.75  1.40  1.75  1.05  1.05  1.05  1.05  
9           1.75  1.75  1.75  1.75  1.40  1.75  1.05  1.05  1.05  1.05  
10          1.75  1.75  1.75  1.75  1.40  1.75  1.05  1.05  1.05  1.05  
11          1.75  1.75  1.75  1.75  1.40  1.75  1.05  1.05  1.05  1.05  
12          1.75  1.75  1.75  1.75  1.40  1.75  1.05  1.05  1.05  1.05  
13          1.75  1.75  1.75  1.75  1.40  1.75  1.05  1.05  1.05  1.05  
14          1.75  1.75  1.75  1.75  1.40  1.75  1.05  1.05  1.05  1.05  
15          1.75  1.75  1.75  1.75  1.40  1.75  1.05  1.05  1.05  1.05  
16          1.75  1.75  1.75  1.75  1.40  1.75  1.05  1.05  1.05  1.05  
17          1.75  1.75  1.75  1.75  1.40  1.75  1.05  1.05  1.05  1.05  
18          1.75  1.75  1.75  1.75  1.40  1.75  1.05  1.05  1.05  1.05  
19          1.75  1.75  1.75  1.75  1.40  1.75  1.05  1.05  1.05  1.05  
20          1.75  1.75  1.75  1.75  1.40  1.75  1.05  1.05  1.05  1.05  
21          1.75  1.75  1.75  1.75  1.40  1.75  1.05  1.05  1.05  1.05  
22          1.75  1.75  1.75  1.75  1.40  1.75  1.05  1.05  1.05  1.05  
23          1.75  1.75  1.75  1.75  1.40  1.75  1.05  1.05  1.05  1.05  
24          1.75  1.75  1.75  1.75  1.40  1.75  1.05  1.05  1.05  1.05  
25          1.67  1.67  1.67  1.67  1.33  1.67  1.00  1.00  1.00  1.00  
26          1.67  1.67  1.67  1.67  1.33  1.67  1.00  1.00  1.00  1.00  
27          1.67  1.67  1.67  1.67  1.33  1.67  1.00  1.00  1.00  1.00  
28          1.67  1.67  1.67  1.67  1.33  1.67  1.00  1.00  1.00  1.00  
29          1.67  1.67  1.67  1.67  1.33  1.67  1.00  1.00  1.00  1.00  
30          1.67  1.67  1.67  1.67  1.33  1.67  1.00  1.00  1.00  1.00  
31          1.67  1.67  1.67  1.67  1.33  1.67  1.00  1.00  1.00  1.00  
32          1.67  1.67  1.67  1.67  1.33  1.67  1.00  1.00  1.00  1.00  
33          1.67  1.67  1.67  1.67  1.33  1.67  1.00  1.00  1.00  1.00  
34          1.75  1.75  1.75  1.75  1.40  1.75  1.05  1.05  1.05  1.05  
35          1.75  1.75  1.75  1.75  1.40  1.75  1.05  1.05  1.05  1.05  
36          1.75  1.75  1.75  1.75  1.40  1.75  1.05  1.05  1.05  1.05  
37          1.75  1.75  1.75  1.75  1.40  1.75  1.05  1.05  1.05  1.05  
38          1.75  1.75  1.75  1.75  1.40  1.75  1.05  1.05  1.05  1.05  
39          1.75  1.75  1.75  1.75  1.40  1.75  1.05  1.05  1.05  1.05  
40          1.75  1.75  1.75  1.75  1.40  1.75  1.05  1.05  1.05  1.05  
41          1.75  1.75  1.75  1.75  1.40  1.75  1.05  1.05  1.05  1.05  
42          1.75  1.75  1.75  1.75  1.40  1.75  1.05  1.05  1.05  1.05  
43          1.75  1.75  1.75  1.75  1.40  1.75  1.05  1.05  1.05  1.05  
44          1.75  1.75  1.75  1.75  1.40  1.75  1.05  1.05  1.05  1.05  
45          1.75  1.75  1.75  1.75  1.40  1.75  1.05  1.05  1.05  1.05  

[*,*,F3 ]:  K1    K2    K3    K4    K5    K6    K7    K8    K9    K10   :=
1           1.82  1.82  1.82  1.82  1.45  1.82  1.09  1.09  1.09  1.09  
2           1.82  1.82  1.82  1.82  1.45  1.82  1.09  1.09  1.09  1.09  
3           1.82  1.82  1.82  1.82  1.45  1.82  1.09  1.09  1.09  1.09  
4           1.82  1.82  1.82  1.82  1.45  1.82  1.09  1.09  1.09  1.09  
5           1.82  1.82  1.82  1.82  1.45  1.82  1.09  1.09  1.09  1.09  
6           1.82  1.82  1.82  1.82  1.45  1.82  1.09  1.09  1.09  1.09  
7           1.82  1.82  1.82  1.82  1.45  1.82  1.09  1.09  1.09  1.09  
8           1.82  1.82  1.82  1.82  1.45  1.82  1.09  1.09  1.09  1.09  
9           1.82  1.82  1.82  1.82  1.45  1.82  1.09  1.09  1.09  1.09  
10          1.82  1.82  1.82  1.82  1.45  1.82  1.09  1.09  1.09  1.09  
11          1.82  1.82  1.82  1.82  1.45  1.82  1.09  1.09  1.09  1.09  
12          1.82  1.82  1.82  1.82  1.45  1.82  1.09  1.09  1.09  1.09  
13          1.82  1.82  1.82  1.82  1.45  1.82  1.09  1.09  1.09  1.09  
14          1.82  1.82  1.82  1.82  1.45  1.82  1.09  1.09  1.09  1.09  
15          1.82  1.82  1.82  1.82  1.45  1.82  1.09  1.09  1.09  1.09  
16          1.82  1.82  1.82  1.82  1.45  1.82  1.09  1.09  1.09  1.09  
17          1.82  1.82  1.82  1.82  1.45  1.82  1.09  1.09  1.09  1.09  
18          1.82  1.82  1.82  1.82  1.45  1.82  1.09  1.09  1.09  1.09  
19          1.82  1.82  1.82  1.82  1.45  1.82  1.09  1.09  1.09  1.09  
20          1.82  1.82  1.82  1.82  1.45  1.82  1.09  1.09  1.09  1.09  
21          1.82  1.82  1.82  1.82  1.45  1.82  1.09  1.09  1.09  1.09  
22          1.82  1.82  1.82  1.82  1.45  1.82  1.09  1.09  1.09  1.09  
23          1.82  1.82  1.82  1.82  1.45  1.82  1.09  1.09  1.09  1.09  
24          1.82  1.82  1.82  1.82  1.45  1.82  1.09  1.09  1.09  1.09  
25          1.73  1.73  1.73  1.73  1.38  1.73  1.04  1.04  1.04  1.04  
26          1.73  1.73  1.73  1.73  1.38  1.73  1.04  1.04  1.04  1.04  
27          1.73  1.73  1.73  1.73  1.38  1.73  1.04  1.04  1.04  1.04  
28          1.73  1.73  1.73  1.73  1.38  1.73  1.04  1.04  1.04  1.04  
29          1.73  1.73  1.73  1.73  1.38  1.73  1.04  1.04  1.04  1.04  
30          1.73  1.73  1.73  1.73  1.38  1.73  1.04  1.04  1.04  1.04  
31          1.73  1.73  1.73  1.73  1.38  1.73  1.04  1.04  1.04  1.04  
32          1.73  1.73  1.73  1.73  1.38  1.73  1.04  1.04  1.04  1.04  
33          1.73  1.73  1.73  1.73  1.38  1.73  1.04  1.04  1.04  1.04  
34          1.82  1.82  1.82  1.82  1.45  1.82  1.09  1.09  1.09  1.09  
35          1.82  1.82  1.82  1.82  1.45  1.82  1.09  1.09  1.09  1.09  
36          1.82  1.82  1.82  1.82  1.45  1.82  1.09  1.09  1.09  1.09  
37          1.82  1.82  1.82  1.82  1.45  1.82  1.09  1.09  1.09  1.09  
38          1.82  1.82  1.82  1.82  1.45  1.82  1.09  1.09  1.09  1.09  
39          1.82  1.82  1.82  1.82  1.45  1.82  1.09  1.09  1.09  1.09  
40          1.82  1.82  1.82  1.82  1.45  1.82  1.09  1.09  1.09  1.09  
41          1.82  1.82  1.82  1.82  1.45  1.82  1.09  1.09  1.09  1.09  
42          1.82  1.82  1.82  1.82  1.45  1.82  1.09  1.09  1.09  1.09  
43          1.82  1.82  1.82  1.82  1.45  1.82  1.09  1.09  1.09  1.09  
44          1.82  1.82  1.82  1.82  1.45  1.82  1.09  1.09  1.09  1.09  
45          1.82  1.82  1.82  1.82  1.45  1.82  1.09  1.09  1.09  1.09  
; # downloads resource k can do at front f in time t if intermediate time slot

param E:= 

[*,*,F1 ]:  K1    K2    K3    K4    K5    K6    K7    K8    K9    K10   :=
1           0.00  0.86  0.33  0.97  0.51  0.46  0.51  0.13  0.30  0.26  
2           0.00  0.86  0.33  0.97  0.51  0.46  0.51  0.13  0.30  0.26  
3           0.00  0.86  0.33  0.97  0.51  0.46  0.51  0.13  0.30  0.26  
4           0.00  0.86  0.33  0.97  0.51  0.46  0.51  0.13  0.30  0.26  
5           0.00  0.86  0.33  0.97  0.51  0.46  0.51  0.13  0.30  0.26  
6           0.00  0.86  0.33  0.97  0.51  0.46  0.51  0.13  0.30  0.26  
7           0.00  0.86  0.33  0.97  0.51  0.46  0.51  0.13  0.30  0.26  
8           0.00  0.86  0.33  0.97  0.51  0.46  0.51  0.13  0.30  0.26  
9           0.00  0.86  0.33  0.97  0.51  0.46  0.51  0.13  0.30  0.26  
10          0.00  0.86  0.33  0.97  0.51  0.46  0.51  0.13  0.30  0.26  
11          0.00  0.86  0.33  0.97  0.51  0.46  0.51  0.13  0.30  0.26  
12          0.00  0.86  0.33  0.97  0.51  0.46  0.51  0.13  0.30  0.26  
13          0.00  0.86  0.33  0.97  0.51  0.46  0.51  0.13  0.30  0.26  
14          0.00  0.86  0.33  0.97  0.51  0.46  0.51  0.13  0.30  0.26  
15          0.00  0.86  0.33  0.97  0.51  0.46  0.51  0.13  0.30  0.26  
16          0.00  0.86  0.33  0.97  0.51  0.46  0.51  0.13  0.30  0.26  
17          0.00  0.86  0.33  0.97  0.51  0.46  0.51  0.13  0.30  0.26  
18          0.00  0.86  0.33  0.97  0.51  0.46  0.51  0.13  0.30  0.26  
19          0.00  0.86  0.33  0.97  0.51  0.46  0.51  0.13  0.30  0.26  
20          0.00  0.86  0.33  0.97  0.51  0.46  0.51  0.13  0.30  0.26  
21          0.00  0.86  0.33  0.97  0.51  0.46  0.51  0.13  0.30  0.26  
22          0.00  0.86  0.33  0.97  0.51  0.46  0.51  0.13  0.30  0.26  
23          0.00  0.86  0.33  0.97  0.51  0.46  0.51  0.13  0.30  0.26  
24          0.00  0.86  0.33  0.97  0.51  0.46  0.51  0.13  0.30  0.26  
25          0.00  0.82  0.31  0.92  0.49  0.44  0.48  0.13  0.28  0.25  
26          0.00  0.82  0.31  0.92  0.49  0.44  0.48  0.13  0.28  0.25  
27          0.00  0.82  0.31  0.92  0.49  0.44  0.48  0.13  0.28  0.25  
28          0.00  0.82  0.31  0.92  0.49  0.44  0.48  0.13  0.28  0.25  
29          0.00  0.82  0.31  0.92  0.49  0.44  0.48  0.13  0.28  0.25  
30          0.00  0.82  0.31  0.92  0.49  0.44  0.48  0.13  0.28  0.25  
31          0.00  0.82  0.31  0.92  0.49  0.44  0.48  0.13  0.28  0.25  
32          0.00  0.82  0.31  0.92  0.49  0.44  0.48  0.13  0.28  0.25  
33          0.00  0.82  0.31  0.92  0.49  0.44  0.48  0.13  0.28  0.25  
34          0.00  0.86  0.33  0.97  0.51  0.46  0.51  0.13  0.30  0.26  
35          0.00  0.86  0.33  0.97  0.51  0.46  0.51  0.13  0.30  0.26  
36          0.00  0.86  0.33  0.97  0.51  0.46  0.51  0.13  0.30  0.26  
37          0.00  0.86  0.33  0.97  0.51  0.46  0.51  0.13  0.30  0.26  
38          0.00  0.86  0.33  0.97  0.51  0.46  0.51  0.13  0.30  0.26  
39          0.00  0.86  0.33  0.97  0.51  0.46  0.51  0.13  0.30  0.26  
40          0.00  0.86  0.33  0.97  0.51  0.46  0.51  0.13  0.30  0.26  
41          0.00  0.86  0.33  0.97  0.51  0.46  0.51  0.13  0.30  0.26  
42          0.00  0.86  0.33  0.97  0.51  0.46  0.51  0.13  0.30  0.26  
43          0.00  0.86  0.33  0.97  0.51  0.46  0.51  0.13  0.30  0.26  
44          0.00  0.86  0.33  0.97  0.51  0.46  0.51  0.13  0.30  0.26  
45          0.00  0.86  0.33  0.97  0.51  0.46  0.51  0.13  0.30  0.26  

[*,*,F2 ]:  K1    K2    K3    K4    K5    K6    K7    K8    K9    K10   :=
1           0.05  0.68  0.42  0.81  0.57  0.56  0.51  0.12  0.27  0.23  
2           0.05  0.68  0.42  0.81  0.57  0.56  0.51  0.12  0.27  0.23  
3           0.05  0.68  0.42  0.81  0.57  0.56  0.51  0.12  0.27  0.23  
4           0.05  0.68  0.42  0.81  0.57  0.56  0.51  0.12  0.27  0.23  
5           0.05  0.68  0.42  0.81  0.57  0.56  0.51  0.12  0.27  0.23  
6           0.05  0.68  0.42  0.81  0.57  0.56  0.51  0.12  0.27  0.23  
7           0.05  0.68  0.42  0.81  0.57  0.56  0.51  0.12  0.27  0.23  
8           0.05  0.68  0.42  0.81  0.57  0.56  0.51  0.12  0.27  0.23  
9           0.05  0.68  0.42  0.81  0.57  0.56  0.51  0.12  0.27  0.23  
10          0.05  0.68  0.42  0.81  0.57  0.56  0.51  0.12  0.27  0.23  
11          0.05  0.68  0.42  0.81  0.57  0.56  0.51  0.12  0.27  0.23  
12          0.05  0.68  0.42  0.81  0.57  0.56  0.51  0.12  0.27  0.23  
13          0.05  0.68  0.42  0.81  0.57  0.56  0.51  0.12  0.27  0.23  
14          0.05  0.68  0.42  0.81  0.57  0.56  0.51  0.12  0.27  0.23  
15          0.05  0.68  0.42  0.81  0.57  0.56  0.51  0.12  0.27  0.23  
16          0.05  0.68  0.42  0.81  0.57  0.56  0.51  0.12  0.27  0.23  
17          0.05  0.68  0.42  0.81  0.57  0.56  0.51  0.12  0.27  0.23  
18          0.05  0.68  0.42  0.81  0.57  0.56  0.51  0.12  0.27  0.23  
19          0.05  0.68  0.42  0.81  0.57  0.56  0.51  0.12  0.27  0.23  
20          0.05  0.68  0.42  0.81  0.57  0.56  0.51  0.12  0.27  0.23  
21          0.05  0.68  0.42  0.81  0.57  0.56  0.51  0.12  0.27  0.23  
22          0.05  0.68  0.42  0.81  0.57  0.56  0.51  0.12  0.27  0.23  
23          0.05  0.68  0.42  0.81  0.57  0.56  0.51  0.12  0.27  0.23  
24          0.05  0.68  0.42  0.81  0.57  0.56  0.51  0.12  0.27  0.23  
25          0.05  0.65  0.40  0.77  0.54  0.53  0.49  0.11  0.26  0.22  
26          0.05  0.65  0.40  0.77  0.54  0.53  0.49  0.11  0.26  0.22  
27          0.05  0.65  0.40  0.77  0.54  0.53  0.49  0.11  0.26  0.22  
28          0.05  0.65  0.40  0.77  0.54  0.53  0.49  0.11  0.26  0.22  
29          0.05  0.65  0.40  0.77  0.54  0.53  0.49  0.11  0.26  0.22  
30          0.05  0.65  0.40  0.77  0.54  0.53  0.49  0.11  0.26  0.22  
31          0.05  0.65  0.40  0.77  0.54  0.53  0.49  0.11  0.26  0.22  
32          0.05  0.65  0.40  0.77  0.54  0.53  0.49  0.11  0.26  0.22  
33          0.05  0.65  0.40  0.77  0.54  0.53  0.49  0.11  0.26  0.22  
34          0.05  0.68  0.42  0.81  0.57  0.56  0.51  0.12  0.27  0.23  
35          0.05  0.68  0.42  0.81  0.57  0.56  0.51  0.12  0.27  0.23  
36          0.05  0.68  0.42  0.81  0.57  0.56  0.51  0.12  0.27  0.23  
37          0.05  0.68  0.42  0.81  0.57  0.56  0.51  0.12  0.27  0.23  
38          0.05  0.68  0.42  0.81  0.57  0.56  0.51  0.12  0.27  0.23  
39          0.05  0.68  0.42  0.81  0.57  0.56  0.51  0.12  0.27  0.23  
40          0.05  0.68  0.42  0.81  0.57  0.56  0.51  0.12  0.27  0.23  
41          0.05  0.68  0.42  0.81  0.57  0.56  0.51  0.12  0.27  0.23  
42          0.05  0.68  0.42  0.81  0.57  0.56  0.51  0.12  0.27  0.23  
43          0.05  0.68  0.42  0.81  0.57  0.56  0.51  0.12  0.27  0.23  
44          0.05  0.68  0.42  0.81  0.57  0.56  0.51  0.12  0.27  0.23  
45          0.05  0.68  0.42  0.81  0.57  0.56  0.51  0.12  0.27  0.23  

[*,*,F3 ]:  K1    K2    K3    K4    K5    K6    K7    K8    K9    K10   :=
1           0.04  0.76  0.40  0.95  0.64  0.56  0.55  0.11  0.25  0.27  
2           0.04  0.76  0.40  0.95  0.64  0.56  0.55  0.11  0.25  0.27  
3           0.04  0.76  0.40  0.95  0.64  0.56  0.55  0.11  0.25  0.27  
4           0.04  0.76  0.40  0.95  0.64  0.56  0.55  0.11  0.25  0.27  
5           0.04  0.76  0.40  0.95  0.64  0.56  0.55  0.11  0.25  0.27  
6           0.04  0.76  0.40  0.95  0.64  0.56  0.55  0.11  0.25  0.27  
7           0.04  0.76  0.40  0.95  0.64  0.56  0.55  0.11  0.25  0.27  
8           0.04  0.76  0.40  0.95  0.64  0.56  0.55  0.11  0.25  0.27  
9           0.04  0.76  0.40  0.95  0.64  0.56  0.55  0.11  0.25  0.27  
10          0.04  0.76  0.40  0.95  0.64  0.56  0.55  0.11  0.25  0.27  
11          0.04  0.76  0.40  0.95  0.64  0.56  0.55  0.11  0.25  0.27  
12          0.04  0.76  0.40  0.95  0.64  0.56  0.55  0.11  0.25  0.27  
13          0.04  0.76  0.40  0.95  0.64  0.56  0.55  0.11  0.25  0.27  
14          0.04  0.76  0.40  0.95  0.64  0.56  0.55  0.11  0.25  0.27  
15          0.04  0.76  0.40  0.95  0.64  0.56  0.55  0.11  0.25  0.27  
16          0.04  0.76  0.40  0.95  0.64  0.56  0.55  0.11  0.25  0.27  
17          0.04  0.76  0.40  0.95  0.64  0.56  0.55  0.11  0.25  0.27  
18          0.04  0.76  0.40  0.95  0.64  0.56  0.55  0.11  0.25  0.27  
19          0.04  0.76  0.40  0.95  0.64  0.56  0.55  0.11  0.25  0.27  
20          0.04  0.76  0.40  0.95  0.64  0.56  0.55  0.11  0.25  0.27  
21          0.04  0.76  0.40  0.95  0.64  0.56  0.55  0.11  0.25  0.27  
22          0.04  0.76  0.40  0.95  0.64  0.56  0.55  0.11  0.25  0.27  
23          0.04  0.76  0.40  0.95  0.64  0.56  0.55  0.11  0.25  0.27  
24          0.04  0.76  0.40  0.95  0.64  0.56  0.55  0.11  0.25  0.27  
25          0.03  0.73  0.38  0.90  0.61  0.54  0.52  0.10  0.24  0.26  
26          0.03  0.73  0.38  0.90  0.61  0.54  0.52  0.10  0.24  0.26  
27          0.03  0.73  0.38  0.90  0.61  0.54  0.52  0.10  0.24  0.26  
28          0.03  0.73  0.38  0.90  0.61  0.54  0.52  0.10  0.24  0.26  
29          0.03  0.73  0.38  0.90  0.61  0.54  0.52  0.10  0.24  0.26  
30          0.03  0.73  0.38  0.90  0.61  0.54  0.52  0.10  0.24  0.26  
31          0.03  0.73  0.38  0.90  0.61  0.54  0.52  0.10  0.24  0.26  
32          0.03  0.73  0.38  0.90  0.61  0.54  0.52  0.10  0.24  0.26  
33          0.03  0.73  0.38  0.90  0.61  0.54  0.52  0.10  0.24  0.26  
34          0.04  0.76  0.40  0.95  0.64  0.56  0.55  0.11  0.25  0.27  
35          0.04  0.76  0.40  0.95  0.64  0.56  0.55  0.11  0.25  0.27  
36          0.04  0.76  0.40  0.95  0.64  0.56  0.55  0.11  0.25  0.27  
37          0.04  0.76  0.40  0.95  0.64  0.56  0.55  0.11  0.25  0.27  
38          0.04  0.76  0.40  0.95  0.64  0.56  0.55  0.11  0.25  0.27  
39          0.04  0.76  0.40  0.95  0.64  0.56  0.55  0.11  0.25  0.27  
40          0.04  0.76  0.40  0.95  0.64  0.56  0.55  0.11  0.25  0.27  
41          0.04  0.76  0.40  0.95  0.64  0.56  0.55  0.11  0.25  0.27  
42          0.04  0.76  0.40  0.95  0.64  0.56  0.55  0.11  0.25  0.27  
43          0.04  0.76  0.40  0.95  0.64  0.56  0.55  0.11  0.25  0.27  
44          0.04  0.76  0.40  0.95  0.64  0.56  0.55  0.11  0.25  0.27  
45          0.04  0.76  0.40  0.95  0.64  0.56  0.55  0.11  0.25  0.27  
; # downloads resource k can do at front f in time t if starting or ending flight

param W: 
	F1        F2        F3        :=
1	441.12    441.12    441.12    
2	1764.46   1764.46   1764.46   
3	1764.46   1764.46   1764.46   
4	1764.46   1764.46   1764.46   
5	1764.46   1764.46   1764.46   
6	1764.46   1764.46   1764.46   
7	1764.46   1764.46   1764.46   
8	1764.46   1764.46   1764.46   
9	1764.46   1764.46   1764.46   
10	1764.46   1764.46   1764.46   
11	1764.46   1764.46   1764.46   
12	1764.46   1764.46   1764.46   
13	1764.46   1764.46   1764.46   
14	1764.46   1764.46   1764.46   
15	1764.46   1764.46   1764.46   
16	1764.46   1764.46   1764.46   
17	1764.46   1764.46   1764.46   
18	1764.46   1764.46   1764.46   
19	784.21    784.21    784.21    
20	784.21    784.21    784.21    
21	784.21    784.21    784.21    
22	784.21    784.21    784.21    
23	784.21    784.21    784.21    
24	784.21    784.21    784.21    
25	784.21    784.21    784.21    
26	784.21    784.21    784.21    
27	784.21    784.21    784.21    
28	784.21    784.21    784.21    
29	784.21    784.21    784.21    
30	784.21    784.21    784.21    
31	784.21    784.21    784.21    
32	784.21    784.21    784.21    
33	784.21    784.21    784.21    
34	784.21    784.21    784.21    
35	784.21    784.21    784.21    
36	784.21    784.21    784.21    
37	784.21    784.21    784.21    
38	784.21    784.21    784.21    
39	784.21    784.21    784.21    
40	784.21    784.21    784.21    
41	784.21    784.21    784.21    
42	784.21    784.21    784.21    
43	784.21    784.21    784.21    
44	784.21    784.21    784.21    
45	196.05    196.05    196.05    
; # water needed at front f in time slot t

param M := 100000000; 

param a1:= 10000000;

param a2:= 100;

param a3:= 0.0001;
